TITLE
FLUKA 16-Task Benchmark - Task 05 (Lead Shield 2.5 cm)
*...+....1....+....2....+....3....+....4....+....5....+....6....+....7....+....8
DEFAULTS                                                              PRECISIO  
LOW-PWXS     -1.0000                                                            
BEAM         -0.0026                                                  PHOTON    
BEAMPOS       0.0000    0.0000  -10.0000                                        
RANDOMIZ      1.00001438270.00                                                  
GEOBEGIN                                                              COMBNAME  
    0    0          Shielding Benchmark Geometry
RPP beamBox      -15.0      15.0     -15.0      15.0     -12.0      -2.0
RPP shield       -25.0      25.0     -25.0      25.0       0.0      2.50
RPP detBox       -10.0      10.0     -10.0      10.0      3.50      8.50
RPP airBox       -60.0      60.0     -60.0      60.0     -30.0      60.0
RPP blkBox      -100.0     100.0    -100.0     100.0    -100.0     100.0
END
TARGET   5 +beamBox
SHIELD   5 +shield
DETECTOR 5 +detBox
AIR      5 +airBox -beamBox -shield -detBox
BLKHOLE  5 +blkBox -airBox
END
GEOEND                                                                          
MATERIAL     32.0000              5.3230                              GERMANIU  
ASSIGNMA      COPPER    TARGET                                                  
ASSIGNMA        LEAD    SHIELD                                                  
ASSIGNMA    GERMANIU  DETECTOR                                                  
ASSIGNMA         AIR       AIR                                                  
ASSIGNMA    BLCKHOLE   BLKHOLE                                                  
USRTRACK      1.0000    PHOTON  -41.0000  DETECTOR 2000.0000   50.0000DetFlux   
USRTRACK      0.0030    0.0000                                        &         
START      250000.00                                                            
STOP                                                                            
